c File: instances/30_0.10_1.col
c
c Description: Random graph of size 30 vertices and P(0.1) of edges between any two vertices.
p col 30 435
e 1 6
e 1 14
e 1 18
e 1 21
e 2 21
e 3 5
e 3 8
e 3 23
e 4 8
e 4 18
e 4 22
e 4 23
e 4 25
e 5 13
e 5 29
e 6 9
e 7 17
e 8 12
e 8 22
e 8 30
e 9 21
e 10 13
e 10 24
e 12 19
e 12 21
e 12 27
e 13 15
e 13 30
e 14 15
e 14 26
e 14 27
e 14 29
e 15 23
e 15 27
e 16 23
e 16 26
e 17 26
e 17 27
e 18 21
e 18 28
e 18 30
e 19 22
e 19 24
e 19 29
e 20 29
e 24 26
e 24 27